c CNF file corresponding to a (partial) station packing problem.
p cnf 1799 229
1 2 3 4 5 6 7 8 9 10 11 12 13 14 0
-1 -2 0
-1 -3 0
-1 -4 0
-1 -5 0
-1 -6 0
-1 -7 0
-1 -8 0
-1 -9 0
-1 -10 0
-1 -11 0
-1 -12 0
-1 -13 0
-1 -14 0
-2 -3 0
-2 -4 0
-2 -5 0
-2 -6 0
-2 -7 0
-2 -8 0
-2 -9 0
-2 -10 0
-2 -11 0
-2 -12 0
-2 -13 0
-2 -14 0
-3 -4 0
-3 -5 0
-3 -6 0
-3 -7 0
-3 -8 0
-3 -9 0
-3 -10 0
-3 -11 0
-3 -12 0
-3 -13 0
-3 -14 0
-4 -5 0
-4 -6 0
-4 -7 0
-4 -8 0
-4 -9 0
-4 -10 0
-4 -11 0
-4 -12 0
-4 -13 0
-4 -14 0
-5 -6 0
-5 -7 0
-5 -8 0
-5 -9 0
-5 -10 0
-5 -11 0
-5 -12 0
-5 -13 0
-5 -14 0
-6 -7 0
-6 -8 0
-6 -9 0
-6 -10 0
-6 -11 0
-6 -12 0
-6 -13 0
-6 -14 0
-7 -8 0
-7 -9 0
-7 -10 0
-7 -11 0
-7 -12 0
-7 -13 0
-7 -14 0
-8 -9 0
-8 -10 0
-8 -11 0
-8 -12 0
-8 -13 0
-8 -14 0
-9 -10 0
-9 -11 0
-9 -12 0
-9 -13 0
-9 -14 0
-10 -11 0
-10 -12 0
-10 -13 0
-10 -14 0
-11 -12 0
-11 -13 0
-11 -14 0
-12 -13 0
-12 -14 0
-13 -14 0
1783 1784 1785 1786 1787 1788 1789 1790 1791 1792 1793 1794 1795 1796 1797 1798 1799 0
-1783 -1784 0
-1783 -1785 0
-1783 -1786 0
-1783 -1787 0
-1783 -1788 0
-1783 -1789 0
-1783 -1790 0
-1783 -1791 0
-1783 -1792 0
-1783 -1793 0
-1783 -1794 0
-1783 -1795 0
-1783 -1796 0
-1783 -1797 0
-1783 -1798 0
-1783 -1799 0
-1784 -1785 0
-1784 -1786 0
-1784 -1787 0
-1784 -1788 0
-1784 -1789 0
-1784 -1790 0
-1784 -1791 0
-1784 -1792 0
-1784 -1793 0
-1784 -1794 0
-1784 -1795 0
-1784 -1796 0
-1784 -1797 0
-1784 -1798 0
-1784 -1799 0
-1785 -1786 0
-1785 -1787 0
-1785 -1788 0
-1785 -1789 0
-1785 -1790 0
-1785 -1791 0
-1785 -1792 0
-1785 -1793 0
-1785 -1794 0
-1785 -1795 0
-1785 -1796 0
-1785 -1797 0
-1785 -1798 0
-1785 -1799 0
-1786 -1787 0
-1786 -1788 0
-1786 -1789 0
-1786 -1790 0
-1786 -1791 0
-1786 -1792 0
-1786 -1793 0
-1786 -1794 0
-1786 -1795 0
-1786 -1796 0
-1786 -1797 0
-1786 -1798 0
-1786 -1799 0
-1787 -1788 0
-1787 -1789 0
-1787 -1790 0
-1787 -1791 0
-1787 -1792 0
-1787 -1793 0
-1787 -1794 0
-1787 -1795 0
-1787 -1796 0
-1787 -1797 0
-1787 -1798 0
-1787 -1799 0
-1788 -1789 0
-1788 -1790 0
-1788 -1791 0
-1788 -1792 0
-1788 -1793 0
-1788 -1794 0
-1788 -1795 0
-1788 -1796 0
-1788 -1797 0
-1788 -1798 0
-1788 -1799 0
-1789 -1790 0
-1789 -1791 0
-1789 -1792 0
-1789 -1793 0
-1789 -1794 0
-1789 -1795 0
-1789 -1796 0
-1789 -1797 0
-1789 -1798 0
-1789 -1799 0
-1790 -1791 0
-1790 -1792 0
-1790 -1793 0
-1790 -1794 0
-1790 -1795 0
-1790 -1796 0
-1790 -1797 0
-1790 -1798 0
-1790 -1799 0
-1791 -1792 0
-1791 -1793 0
-1791 -1794 0
-1791 -1795 0
-1791 -1796 0
-1791 -1797 0
-1791 -1798 0
-1791 -1799 0
-1792 -1793 0
-1792 -1794 0
-1792 -1795 0
-1792 -1796 0
-1792 -1797 0
-1792 -1798 0
-1792 -1799 0
-1793 -1794 0
-1793 -1795 0
-1793 -1796 0
-1793 -1797 0
-1793 -1798 0
-1793 -1799 0
-1794 -1795 0
-1794 -1796 0
-1794 -1797 0
-1794 -1798 0
-1794 -1799 0
-1795 -1796 0
-1795 -1797 0
-1795 -1798 0
-1795 -1799 0
-1796 -1797 0
-1796 -1798 0
-1796 -1799 0
-1797 -1798 0
-1797 -1799 0
-1798 -1799 0
